NAME : pairopt.-190430.tour
COMMENT : Length = -190430
COMMENT : Found by LKH-3 [Keld Helsgaun] Fri Oct 13 14:43:54 2023
TYPE : TOUR
DIMENSION : 35
TOUR_SECTION
1
2
15
17
13
27
31
34
11
32
21
9
18
14
28
8
33
22
25
26
30
29
23
16
19
35
3
7
5
20
6
4
24
12
10
-1
EOF
